NAME : berlin52_solution.tour
TYPE : TOUR
DIMENSION : 53
COMMENT : Tour length: 10191.4022
COMMENT : Time elapsed: 54.64 [s]
TOUR_SECTION
0
17
30
20
22
43
24
27
26
12
51
13
25
46
28
29
1
6
41
16
2
8
9
14
4
5
42
32
50
10
11
3
37
39
38
19
49
15
45
47
23
36
33
34
35
7
40
18
44
31
48
21
0
-1
EOF
